31	3	3
5	8	7	103	86	82	
0	0	0	0	3	7	10	5	2	4	29	2	3	4	5	6	7	8	9	10	11	12	13	14	15	16	17	18	19	20	21	22	23	24	25	26	27	28	29	30
6	3	1	1	5	5	3	2	1	10	1	10
3	2	2	1	1	3	1	4	4	5	1	15
3	2	1	2	10	9	4	1	4	7	1	26
5	2	3	1	1	7	7	1	9	6	1	27
2	4	3	1	6	2	3	5	6	5	1	31
6	1	3	1	9	1	9	1	2	10	1	31
6	2	1	2	1	3	2	1	7	6	1	31
2	1	3	1	6	6	4	10	6	7	1	31
5	2	1	1	7	6	3	3	6	2	1	31
4	4	1	1	8	2	3	1	6	8	1	19
4	1	2	2	5	4	8	4	5	10	1	31
6	2	1	2	3	6	3	4	6	9	1	16
3	3	1	2	9	2	4	3	2	9	1	31
3	2	1	2	9	8	5	2	10	1	1	24
5	4	1	1	3	8	2	5	8	7	1	23
2	5	3	2	3	2	1	1	6	6	1	20
2	2	2	1	10	8	1	2	2	7	1	31
6	3	3	2	10	10	9	4	3	10	1	31
2	3	2	1	3	2	8	7	3	7	1	23
2	2	1	2	8	6	5	9	1	3	1	24
6	1	2	2	6	4	4	7	4	9	1	31
4	3	3	2	3	4	7	3	5	8	1	31
4	1	1	1	10	5	8	8	9	10	1	31
4	3	1	1	8	1	1	5	8	4	1	31
4	2	1	1	2	5	10	6	4	1	1	31
2	4	2	1	8	10	4	2	6	7	1	31
2	3	1	2	1	8	10	8	1	5	1	31
4	5	2	2	5	1	10	3	8	8	1	31
6	5	3	1	2	6	9	3	10	6	1	31
0	0	0	0	7	2	10	6	8	4	0
